c K_4(4,2) M=6 perfil 0: ((2, 2, 1, 1), (2, 2, 1, 1), (2, 2, 1, 1), (2, 2, 1, 1))
p cnf 636 2356
1 2 3 4 0
-1 -2 0
-1 -3 0
-1 -4 0
-2 -3 0
-2 -4 0
-3 -4 0
5 6 7 8 0
-5 -6 0
-5 -7 0
-5 -8 0
-6 -7 0
-6 -8 0
-7 -8 0
9 10 11 12 0
-9 -10 0
-9 -11 0
-9 -12 0
-10 -11 0
-10 -12 0
-11 -12 0
13 14 15 16 0
-13 -14 0
-13 -15 0
-13 -16 0
-14 -15 0
-14 -16 0
-15 -16 0
17 18 19 20 0
-17 -18 0
-17 -19 0
-17 -20 0
-18 -19 0
-18 -20 0
-19 -20 0
21 22 23 24 0
-21 -22 0
-21 -23 0
-21 -24 0
-22 -23 0
-22 -24 0
-23 -24 0
25 26 27 28 0
-25 -26 0
-25 -27 0
-25 -28 0
-26 -27 0
-26 -28 0
-27 -28 0
29 30 31 32 0
-29 -30 0
-29 -31 0
-29 -32 0
-30 -31 0
-30 -32 0
-31 -32 0
33 34 35 36 0
-33 -34 0
-33 -35 0
-33 -36 0
-34 -35 0
-34 -36 0
-35 -36 0
37 38 39 40 0
-37 -38 0
-37 -39 0
-37 -40 0
-38 -39 0
-38 -40 0
-39 -40 0
41 42 43 44 0
-41 -42 0
-41 -43 0
-41 -44 0
-42 -43 0
-42 -44 0
-43 -44 0
45 46 47 48 0
-45 -46 0
-45 -47 0
-45 -48 0
-46 -47 0
-46 -48 0
-47 -48 0
49 50 51 52 0
-49 -50 0
-49 -51 0
-49 -52 0
-50 -51 0
-50 -52 0
-51 -52 0
53 54 55 56 0
-53 -54 0
-53 -55 0
-53 -56 0
-54 -55 0
-54 -56 0
-55 -56 0
57 58 59 60 0
-57 -58 0
-57 -59 0
-57 -60 0
-58 -59 0
-58 -60 0
-59 -60 0
61 62 63 64 0
-61 -62 0
-61 -63 0
-61 -64 0
-62 -63 0
-62 -64 0
-63 -64 0
65 66 67 68 0
-65 -66 0
-65 -67 0
-65 -68 0
-66 -67 0
-66 -68 0
-67 -68 0
69 70 71 72 0
-69 -70 0
-69 -71 0
-69 -72 0
-70 -71 0
-70 -72 0
-71 -72 0
-73 1 0
73 -1 0
-74 0
-75 0
-73 76 0
-13 76 0
-76 73 13 0
-74 77 0
-73 -13 77 0
-77 74 13 0
-77 74 73 0
-75 78 0
-74 -13 78 0
-78 75 13 0
-78 75 74 0
-76 79 0
-25 79 0
-79 76 25 0
-77 80 0
-76 -25 80 0
-80 77 25 0
-80 77 76 0
-78 81 0
-77 -25 81 0
-81 78 25 0
-81 78 77 0
-79 82 0
-37 82 0
-82 79 37 0
-80 83 0
-79 -37 83 0
-83 80 37 0
-83 80 79 0
-81 84 0
-80 -37 84 0
-84 81 37 0
-84 81 80 0
-82 85 0
-49 85 0
-85 82 49 0
-83 86 0
-82 -49 86 0
-86 83 49 0
-86 83 82 0
-84 87 0
-83 -49 87 0
-87 84 49 0
-87 84 83 0
-85 88 0
-61 88 0
-88 85 61 0
-86 89 0
-85 -61 89 0
-89 86 61 0
-89 86 85 0
-87 90 0
-86 -61 90 0
-90 87 61 0
-90 87 86 0
89 0
-90 0
-91 2 0
91 -2 0
-92 0
-93 0
-91 94 0
-14 94 0
-94 91 14 0
-92 95 0
-91 -14 95 0
-95 92 14 0
-95 92 91 0
-93 96 0
-92 -14 96 0
-96 93 14 0
-96 93 92 0
-94 97 0
-26 97 0
-97 94 26 0
-95 98 0
-94 -26 98 0
-98 95 26 0
-98 95 94 0
-96 99 0
-95 -26 99 0
-99 96 26 0
-99 96 95 0
-97 100 0
-38 100 0
-100 97 38 0
-98 101 0
-97 -38 101 0
-101 98 38 0
-101 98 97 0
-99 102 0
-98 -38 102 0
-102 99 38 0
-102 99 98 0
-100 103 0
-50 103 0
-103 100 50 0
-101 104 0
-100 -50 104 0
-104 101 50 0
-104 101 100 0
-102 105 0
-101 -50 105 0
-105 102 50 0
-105 102 101 0
-103 106 0
-62 106 0
-106 103 62 0
-104 107 0
-103 -62 107 0
-107 104 62 0
-107 104 103 0
-105 108 0
-104 -62 108 0
-108 105 62 0
-108 105 104 0
107 0
-108 0
-109 3 0
109 -3 0
-110 0
-109 111 0
-15 111 0
-111 109 15 0
-110 112 0
-109 -15 112 0
-112 110 15 0
-112 110 109 0
-111 113 0
-27 113 0
-113 111 27 0
-112 114 0
-111 -27 114 0
-114 112 27 0
-114 112 111 0
-113 115 0
-39 115 0
-115 113 39 0
-114 116 0
-113 -39 116 0
-116 114 39 0
-116 114 113 0
-115 117 0
-51 117 0
-117 115 51 0
-116 118 0
-115 -51 118 0
-118 116 51 0
-118 116 115 0
-117 119 0
-63 119 0
-119 117 63 0
-118 120 0
-117 -63 120 0
-120 118 63 0
-120 118 117 0
119 0
-120 0
-121 4 0
121 -4 0
-122 0
-121 123 0
-16 123 0
-123 121 16 0
-122 124 0
-121 -16 124 0
-124 122 16 0
-124 122 121 0
-123 125 0
-28 125 0
-125 123 28 0
-124 126 0
-123 -28 126 0
-126 124 28 0
-126 124 123 0
-125 127 0
-40 127 0
-127 125 40 0
-126 128 0
-125 -40 128 0
-128 126 40 0
-128 126 125 0
-127 129 0
-52 129 0
-129 127 52 0
-128 130 0
-127 -52 130 0
-130 128 52 0
-130 128 127 0
-129 131 0
-64 131 0
-131 129 64 0
-130 132 0
-129 -64 132 0
-132 130 64 0
-132 130 129 0
131 0
-132 0
-133 5 0
133 -5 0
-134 0
-135 0
-133 136 0
-17 136 0
-136 133 17 0
-134 137 0
-133 -17 137 0
-137 134 17 0
-137 134 133 0
-135 138 0
-134 -17 138 0
-138 135 17 0
-138 135 134 0
-136 139 0
-29 139 0
-139 136 29 0
-137 140 0
-136 -29 140 0
-140 137 29 0
-140 137 136 0
-138 141 0
-137 -29 141 0
-141 138 29 0
-141 138 137 0
-139 142 0
-41 142 0
-142 139 41 0
-140 143 0
-139 -41 143 0
-143 140 41 0
-143 140 139 0
-141 144 0
-140 -41 144 0
-144 141 41 0
-144 141 140 0
-142 145 0
-53 145 0
-145 142 53 0
-143 146 0
-142 -53 146 0
-146 143 53 0
-146 143 142 0
-144 147 0
-143 -53 147 0
-147 144 53 0
-147 144 143 0
-145 148 0
-65 148 0
-148 145 65 0
-146 149 0
-145 -65 149 0
-149 146 65 0
-149 146 145 0
-147 150 0
-146 -65 150 0
-150 147 65 0
-150 147 146 0
149 0
-150 0
-151 6 0
151 -6 0
-152 0
-153 0
-151 154 0
-18 154 0
-154 151 18 0
-152 155 0
-151 -18 155 0
-155 152 18 0
-155 152 151 0
-153 156 0
-152 -18 156 0
-156 153 18 0
-156 153 152 0
-154 157 0
-30 157 0
-157 154 30 0
-155 158 0
-154 -30 158 0
-158 155 30 0
-158 155 154 0
-156 159 0
-155 -30 159 0
-159 156 30 0
-159 156 155 0
-157 160 0
-42 160 0
-160 157 42 0
-158 161 0
-157 -42 161 0
-161 158 42 0
-161 158 157 0
-159 162 0
-158 -42 162 0
-162 159 42 0
-162 159 158 0
-160 163 0
-54 163 0
-163 160 54 0
-161 164 0
-160 -54 164 0
-164 161 54 0
-164 161 160 0
-162 165 0
-161 -54 165 0
-165 162 54 0
-165 162 161 0
-163 166 0
-66 166 0
-166 163 66 0
-164 167 0
-163 -66 167 0
-167 164 66 0
-167 164 163 0
-165 168 0
-164 -66 168 0
-168 165 66 0
-168 165 164 0
167 0
-168 0
-169 7 0
169 -7 0
-170 0
-169 171 0
-19 171 0
-171 169 19 0
-170 172 0
-169 -19 172 0
-172 170 19 0
-172 170 169 0
-171 173 0
-31 173 0
-173 171 31 0
-172 174 0
-171 -31 174 0
-174 172 31 0
-174 172 171 0
-173 175 0
-43 175 0
-175 173 43 0
-174 176 0
-173 -43 176 0
-176 174 43 0
-176 174 173 0
-175 177 0
-55 177 0
-177 175 55 0
-176 178 0
-175 -55 178 0
-178 176 55 0
-178 176 175 0
-177 179 0
-67 179 0
-179 177 67 0
-178 180 0
-177 -67 180 0
-180 178 67 0
-180 178 177 0
179 0
-180 0
-181 8 0
181 -8 0
-182 0
-181 183 0
-20 183 0
-183 181 20 0
-182 184 0
-181 -20 184 0
-184 182 20 0
-184 182 181 0
-183 185 0
-32 185 0
-185 183 32 0
-184 186 0
-183 -32 186 0
-186 184 32 0
-186 184 183 0
-185 187 0
-44 187 0
-187 185 44 0
-186 188 0
-185 -44 188 0
-188 186 44 0
-188 186 185 0
-187 189 0
-56 189 0
-189 187 56 0
-188 190 0
-187 -56 190 0
-190 188 56 0
-190 188 187 0
-189 191 0
-68 191 0
-191 189 68 0
-190 192 0
-189 -68 192 0
-192 190 68 0
-192 190 189 0
191 0
-192 0
-193 9 0
193 -9 0
-194 0
-195 0
-193 196 0
-21 196 0
-196 193 21 0
-194 197 0
-193 -21 197 0
-197 194 21 0
-197 194 193 0
-195 198 0
-194 -21 198 0
-198 195 21 0
-198 195 194 0
-196 199 0
-33 199 0
-199 196 33 0
-197 200 0
-196 -33 200 0
-200 197 33 0
-200 197 196 0
-198 201 0
-197 -33 201 0
-201 198 33 0
-201 198 197 0
-199 202 0
-45 202 0
-202 199 45 0
-200 203 0
-199 -45 203 0
-203 200 45 0
-203 200 199 0
-201 204 0
-200 -45 204 0
-204 201 45 0
-204 201 200 0
-202 205 0
-57 205 0
-205 202 57 0
-203 206 0
-202 -57 206 0
-206 203 57 0
-206 203 202 0
-204 207 0
-203 -57 207 0
-207 204 57 0
-207 204 203 0
-205 208 0
-69 208 0
-208 205 69 0
-206 209 0
-205 -69 209 0
-209 206 69 0
-209 206 205 0
-207 210 0
-206 -69 210 0
-210 207 69 0
-210 207 206 0
209 0
-210 0
-211 10 0
211 -10 0
-212 0
-213 0
-211 214 0
-22 214 0
-214 211 22 0
-212 215 0
-211 -22 215 0
-215 212 22 0
-215 212 211 0
-213 216 0
-212 -22 216 0
-216 213 22 0
-216 213 212 0
-214 217 0
-34 217 0
-217 214 34 0
-215 218 0
-214 -34 218 0
-218 215 34 0
-218 215 214 0
-216 219 0
-215 -34 219 0
-219 216 34 0
-219 216 215 0
-217 220 0
-46 220 0
-220 217 46 0
-218 221 0
-217 -46 221 0
-221 218 46 0
-221 218 217 0
-219 222 0
-218 -46 222 0
-222 219 46 0
-222 219 218 0
-220 223 0
-58 223 0
-223 220 58 0
-221 224 0
-220 -58 224 0
-224 221 58 0
-224 221 220 0
-222 225 0
-221 -58 225 0
-225 222 58 0
-225 222 221 0
-223 226 0
-70 226 0
-226 223 70 0
-224 227 0
-223 -70 227 0
-227 224 70 0
-227 224 223 0
-225 228 0
-224 -70 228 0
-228 225 70 0
-228 225 224 0
227 0
-228 0
-229 11 0
229 -11 0
-230 0
-229 231 0
-23 231 0
-231 229 23 0
-230 232 0
-229 -23 232 0
-232 230 23 0
-232 230 229 0
-231 233 0
-35 233 0
-233 231 35 0
-232 234 0
-231 -35 234 0
-234 232 35 0
-234 232 231 0
-233 235 0
-47 235 0
-235 233 47 0
-234 236 0
-233 -47 236 0
-236 234 47 0
-236 234 233 0
-235 237 0
-59 237 0
-237 235 59 0
-236 238 0
-235 -59 238 0
-238 236 59 0
-238 236 235 0
-237 239 0
-71 239 0
-239 237 71 0
-238 240 0
-237 -71 240 0
-240 238 71 0
-240 238 237 0
239 0
-240 0
-241 12 0
241 -12 0
-242 0
-241 243 0
-24 243 0
-243 241 24 0
-242 244 0
-241 -24 244 0
-244 242 24 0
-244 242 241 0
-243 245 0
-36 245 0
-245 243 36 0
-244 246 0
-243 -36 246 0
-246 244 36 0
-246 244 243 0
-245 247 0
-48 247 0
-247 245 48 0
-246 248 0
-245 -48 248 0
-248 246 48 0
-248 246 245 0
-247 249 0
-60 249 0
-249 247 60 0
-248 250 0
-247 -60 250 0
-250 248 60 0
-250 248 247 0
-249 251 0
-72 251 0
-251 249 72 0
-250 252 0
-249 -72 252 0
-252 250 72 0
-252 250 249 0
251 0
-252 0
-253 1 13 0
-1 253 0
-13 253 0
-254 2 14 0
-2 254 0
-14 254 0
-255 3 15 0
-3 255 0
-15 255 0
-256 4 16 0
-4 256 0
-16 256 0
-257 25 37 0
-25 257 0
-37 257 0
-258 26 38 0
-26 258 0
-38 258 0
-259 27 39 0
-27 259 0
-39 259 0
-260 28 40 0
-28 260 0
-40 260 0
-261 49 0
-49 261 0
-262 50 0
-50 262 0
-263 51 0
-51 263 0
-264 52 0
-52 264 0
-265 61 0
-61 265 0
-266 62 0
-62 266 0
-267 63 0
-63 267 0
-268 64 0
-64 268 0
-269 5 17 0
-5 269 0
-17 269 0
-270 6 18 0
-6 270 0
-18 270 0
-271 7 19 0
-7 271 0
-19 271 0
-272 8 20 0
-8 272 0
-20 272 0
-273 29 41 0
-29 273 0
-41 273 0
-274 30 42 0
-30 274 0
-42 274 0
-275 31 43 0
-31 275 0
-43 275 0
-276 32 44 0
-32 276 0
-44 276 0
-277 53 0
-53 277 0
-278 54 0
-54 278 0
-279 55 0
-55 279 0
-280 56 0
-56 280 0
-281 65 0
-65 281 0
-282 66 0
-66 282 0
-283 67 0
-67 283 0
-284 68 0
-68 284 0
-285 9 21 0
-9 285 0
-21 285 0
-286 10 22 0
-10 286 0
-22 286 0
-287 11 23 0
-11 287 0
-23 287 0
-288 12 24 0
-12 288 0
-24 288 0
-289 33 45 0
-33 289 0
-45 289 0
-290 34 46 0
-34 290 0
-46 290 0
-291 35 47 0
-35 291 0
-47 291 0
-292 36 48 0
-36 292 0
-48 292 0
-293 57 0
-57 293 0
-294 58 0
-58 294 0
-295 59 0
-59 295 0
-296 60 0
-60 296 0
-297 69 0
-69 297 0
-298 70 0
-70 298 0
-299 71 0
-71 299 0
-300 72 0
-72 300 0
-302 1 0
-302 5 0
302 -1 -5 0
-302 301 0
-303 13 0
-303 17 0
303 -13 -17 0
-303 301 0
-304 25 0
-304 29 0
304 -25 -29 0
-304 301 0
-305 37 0
-305 41 0
305 -37 -41 0
-305 301 0
-306 49 0
-306 53 0
306 -49 -53 0
-306 301 0
-307 61 0
-307 65 0
307 -61 -65 0
-307 301 0
-301 302 303 304 305 306 307 0
-309 1 0
-309 6 0
309 -1 -6 0
-309 308 0
-310 13 0
-310 18 0
310 -13 -18 0
-310 308 0
-311 25 0
-311 30 0
311 -25 -30 0
-311 308 0
-312 37 0
-312 42 0
312 -37 -42 0
-312 308 0
-313 49 0
-313 54 0
313 -49 -54 0
-313 308 0
-314 61 0
-314 66 0
314 -61 -66 0
-314 308 0
-308 309 310 311 312 313 314 0
-316 1 0
-316 7 0
316 -1 -7 0
-316 315 0
-317 13 0
-317 19 0
317 -13 -19 0
-317 315 0
-318 25 0
-318 31 0
318 -25 -31 0
-318 315 0
-319 37 0
-319 43 0
319 -37 -43 0
-319 315 0
-320 49 0
-320 55 0
320 -49 -55 0
-320 315 0
-321 61 0
-321 67 0
321 -61 -67 0
-321 315 0
-315 316 317 318 319 320 321 0
-323 1 0
-323 8 0
323 -1 -8 0
-323 322 0
-324 13 0
-324 20 0
324 -13 -20 0
-324 322 0
-325 25 0
-325 32 0
325 -25 -32 0
-325 322 0
-326 37 0
-326 44 0
326 -37 -44 0
-326 322 0
-327 49 0
-327 56 0
327 -49 -56 0
-327 322 0
-328 61 0
-328 68 0
328 -61 -68 0
-328 322 0
-322 323 324 325 326 327 328 0
-330 2 0
-330 5 0
330 -2 -5 0
-330 329 0
-331 14 0
-331 17 0
331 -14 -17 0
-331 329 0
-332 26 0
-332 29 0
332 -26 -29 0
-332 329 0
-333 38 0
-333 41 0
333 -38 -41 0
-333 329 0
-334 50 0
-334 53 0
334 -50 -53 0
-334 329 0
-335 62 0
-335 65 0
335 -62 -65 0
-335 329 0
-329 330 331 332 333 334 335 0
-337 2 0
-337 6 0
337 -2 -6 0
-337 336 0
-338 14 0
-338 18 0
338 -14 -18 0
-338 336 0
-339 26 0
-339 30 0
339 -26 -30 0
-339 336 0
-340 38 0
-340 42 0
340 -38 -42 0
-340 336 0
-341 50 0
-341 54 0
341 -50 -54 0
-341 336 0
-342 62 0
-342 66 0
342 -62 -66 0
-342 336 0
-336 337 338 339 340 341 342 0
-344 2 0
-344 7 0
344 -2 -7 0
-344 343 0
-345 14 0
-345 19 0
345 -14 -19 0
-345 343 0
-346 26 0
-346 31 0
346 -26 -31 0
-346 343 0
-347 38 0
-347 43 0
347 -38 -43 0
-347 343 0
-348 50 0
-348 55 0
348 -50 -55 0
-348 343 0
-349 62 0
-349 67 0
349 -62 -67 0
-349 343 0
-343 344 345 346 347 348 349 0
-351 2 0
-351 8 0
351 -2 -8 0
-351 350 0
-352 14 0
-352 20 0
352 -14 -20 0
-352 350 0
-353 26 0
-353 32 0
353 -26 -32 0
-353 350 0
-354 38 0
-354 44 0
354 -38 -44 0
-354 350 0
-355 50 0
-355 56 0
355 -50 -56 0
-355 350 0
-356 62 0
-356 68 0
356 -62 -68 0
-356 350 0
-350 351 352 353 354 355 356 0
-358 3 0
-358 5 0
358 -3 -5 0
-358 357 0
-359 15 0
-359 17 0
359 -15 -17 0
-359 357 0
-360 27 0
-360 29 0
360 -27 -29 0
-360 357 0
-361 39 0
-361 41 0
361 -39 -41 0
-361 357 0
-362 51 0
-362 53 0
362 -51 -53 0
-362 357 0
-363 63 0
-363 65 0
363 -63 -65 0
-363 357 0
-357 358 359 360 361 362 363 0
-365 3 0
-365 6 0
365 -3 -6 0
-365 364 0
-366 15 0
-366 18 0
366 -15 -18 0
-366 364 0
-367 27 0
-367 30 0
367 -27 -30 0
-367 364 0
-368 39 0
-368 42 0
368 -39 -42 0
-368 364 0
-369 51 0
-369 54 0
369 -51 -54 0
-369 364 0
-370 63 0
-370 66 0
370 -63 -66 0
-370 364 0
-364 365 366 367 368 369 370 0
-372 3 0
-372 7 0
372 -3 -7 0
-372 371 0
-373 15 0
-373 19 0
373 -15 -19 0
-373 371 0
-374 27 0
-374 31 0
374 -27 -31 0
-374 371 0
-375 39 0
-375 43 0
375 -39 -43 0
-375 371 0
-376 51 0
-376 55 0
376 -51 -55 0
-376 371 0
-377 63 0
-377 67 0
377 -63 -67 0
-377 371 0
-371 372 373 374 375 376 377 0
-379 3 0
-379 8 0
379 -3 -8 0
-379 378 0
-380 15 0
-380 20 0
380 -15 -20 0
-380 378 0
-381 27 0
-381 32 0
381 -27 -32 0
-381 378 0
-382 39 0
-382 44 0
382 -39 -44 0
-382 378 0
-383 51 0
-383 56 0
383 -51 -56 0
-383 378 0
-384 63 0
-384 68 0
384 -63 -68 0
-384 378 0
-378 379 380 381 382 383 384 0
-386 4 0
-386 5 0
386 -4 -5 0
-386 385 0
-387 16 0
-387 17 0
387 -16 -17 0
-387 385 0
-388 28 0
-388 29 0
388 -28 -29 0
-388 385 0
-389 40 0
-389 41 0
389 -40 -41 0
-389 385 0
-390 52 0
-390 53 0
390 -52 -53 0
-390 385 0
-391 64 0
-391 65 0
391 -64 -65 0
-391 385 0
-385 386 387 388 389 390 391 0
-393 4 0
-393 6 0
393 -4 -6 0
-393 392 0
-394 16 0
-394 18 0
394 -16 -18 0
-394 392 0
-395 28 0
-395 30 0
395 -28 -30 0
-395 392 0
-396 40 0
-396 42 0
396 -40 -42 0
-396 392 0
-397 52 0
-397 54 0
397 -52 -54 0
-397 392 0
-398 64 0
-398 66 0
398 -64 -66 0
-398 392 0
-392 393 394 395 396 397 398 0
-400 4 0
-400 7 0
400 -4 -7 0
-400 399 0
-401 16 0
-401 19 0
401 -16 -19 0
-401 399 0
-402 28 0
-402 31 0
402 -28 -31 0
-402 399 0
-403 40 0
-403 43 0
403 -40 -43 0
-403 399 0
-404 52 0
-404 55 0
404 -52 -55 0
-404 399 0
-405 64 0
-405 67 0
405 -64 -67 0
-405 399 0
-399 400 401 402 403 404 405 0
-407 4 0
-407 8 0
407 -4 -8 0
-407 406 0
-408 16 0
-408 20 0
408 -16 -20 0
-408 406 0
-409 28 0
-409 32 0
409 -28 -32 0
-409 406 0
-410 40 0
-410 44 0
410 -40 -44 0
-410 406 0
-411 52 0
-411 56 0
411 -52 -56 0
-411 406 0
-412 64 0
-412 68 0
412 -64 -68 0
-412 406 0
-406 407 408 409 410 411 412 0
-414 1 0
-414 9 0
414 -1 -9 0
-414 413 0
-415 13 0
-415 21 0
415 -13 -21 0
-415 413 0
-416 25 0
-416 33 0
416 -25 -33 0
-416 413 0
-417 37 0
-417 45 0
417 -37 -45 0
-417 413 0
-418 49 0
-418 57 0
418 -49 -57 0
-418 413 0
-419 61 0
-419 69 0
419 -61 -69 0
-419 413 0
-413 414 415 416 417 418 419 0
-421 1 0
-421 10 0
421 -1 -10 0
-421 420 0
-422 13 0
-422 22 0
422 -13 -22 0
-422 420 0
-423 25 0
-423 34 0
423 -25 -34 0
-423 420 0
-424 37 0
-424 46 0
424 -37 -46 0
-424 420 0
-425 49 0
-425 58 0
425 -49 -58 0
-425 420 0
-426 61 0
-426 70 0
426 -61 -70 0
-426 420 0
-420 421 422 423 424 425 426 0
-428 1 0
-428 11 0
428 -1 -11 0
-428 427 0
-429 13 0
-429 23 0
429 -13 -23 0
-429 427 0
-430 25 0
-430 35 0
430 -25 -35 0
-430 427 0
-431 37 0
-431 47 0
431 -37 -47 0
-431 427 0
-432 49 0
-432 59 0
432 -49 -59 0
-432 427 0
-433 61 0
-433 71 0
433 -61 -71 0
-433 427 0
-427 428 429 430 431 432 433 0
-435 1 0
-435 12 0
435 -1 -12 0
-435 434 0
-436 13 0
-436 24 0
436 -13 -24 0
-436 434 0
-437 25 0
-437 36 0
437 -25 -36 0
-437 434 0
-438 37 0
-438 48 0
438 -37 -48 0
-438 434 0
-439 49 0
-439 60 0
439 -49 -60 0
-439 434 0
-440 61 0
-440 72 0
440 -61 -72 0
-440 434 0
-434 435 436 437 438 439 440 0
-442 2 0
-442 9 0
442 -2 -9 0
-442 441 0
-443 14 0
-443 21 0
443 -14 -21 0
-443 441 0
-444 26 0
-444 33 0
444 -26 -33 0
-444 441 0
-445 38 0
-445 45 0
445 -38 -45 0
-445 441 0
-446 50 0
-446 57 0
446 -50 -57 0
-446 441 0
-447 62 0
-447 69 0
447 -62 -69 0
-447 441 0
-441 442 443 444 445 446 447 0
-449 2 0
-449 10 0
449 -2 -10 0
-449 448 0
-450 14 0
-450 22 0
450 -14 -22 0
-450 448 0
-451 26 0
-451 34 0
451 -26 -34 0
-451 448 0
-452 38 0
-452 46 0
452 -38 -46 0
-452 448 0
-453 50 0
-453 58 0
453 -50 -58 0
-453 448 0
-454 62 0
-454 70 0
454 -62 -70 0
-454 448 0
-448 449 450 451 452 453 454 0
-456 2 0
-456 11 0
456 -2 -11 0
-456 455 0
-457 14 0
-457 23 0
457 -14 -23 0
-457 455 0
-458 26 0
-458 35 0
458 -26 -35 0
-458 455 0
-459 38 0
-459 47 0
459 -38 -47 0
-459 455 0
-460 50 0
-460 59 0
460 -50 -59 0
-460 455 0
-461 62 0
-461 71 0
461 -62 -71 0
-461 455 0
-455 456 457 458 459 460 461 0
-463 2 0
-463 12 0
463 -2 -12 0
-463 462 0
-464 14 0
-464 24 0
464 -14 -24 0
-464 462 0
-465 26 0
-465 36 0
465 -26 -36 0
-465 462 0
-466 38 0
-466 48 0
466 -38 -48 0
-466 462 0
-467 50 0
-467 60 0
467 -50 -60 0
-467 462 0
-468 62 0
-468 72 0
468 -62 -72 0
-468 462 0
-462 463 464 465 466 467 468 0
-470 3 0
-470 9 0
470 -3 -9 0
-470 469 0
-471 15 0
-471 21 0
471 -15 -21 0
-471 469 0
-472 27 0
-472 33 0
472 -27 -33 0
-472 469 0
-473 39 0
-473 45 0
473 -39 -45 0
-473 469 0
-474 51 0
-474 57 0
474 -51 -57 0
-474 469 0
-475 63 0
-475 69 0
475 -63 -69 0
-475 469 0
-469 470 471 472 473 474 475 0
-477 3 0
-477 10 0
477 -3 -10 0
-477 476 0
-478 15 0
-478 22 0
478 -15 -22 0
-478 476 0
-479 27 0
-479 34 0
479 -27 -34 0
-479 476 0
-480 39 0
-480 46 0
480 -39 -46 0
-480 476 0
-481 51 0
-481 58 0
481 -51 -58 0
-481 476 0
-482 63 0
-482 70 0
482 -63 -70 0
-482 476 0
-476 477 478 479 480 481 482 0
-484 3 0
-484 11 0
484 -3 -11 0
-484 483 0
-485 15 0
-485 23 0
485 -15 -23 0
-485 483 0
-486 27 0
-486 35 0
486 -27 -35 0
-486 483 0
-487 39 0
-487 47 0
487 -39 -47 0
-487 483 0
-488 51 0
-488 59 0
488 -51 -59 0
-488 483 0
-489 63 0
-489 71 0
489 -63 -71 0
-489 483 0
-483 484 485 486 487 488 489 0
-491 3 0
-491 12 0
491 -3 -12 0
-491 490 0
-492 15 0
-492 24 0
492 -15 -24 0
-492 490 0
-493 27 0
-493 36 0
493 -27 -36 0
-493 490 0
-494 39 0
-494 48 0
494 -39 -48 0
-494 490 0
-495 51 0
-495 60 0
495 -51 -60 0
-495 490 0
-496 63 0
-496 72 0
496 -63 -72 0
-496 490 0
-490 491 492 493 494 495 496 0
-498 4 0
-498 9 0
498 -4 -9 0
-498 497 0
-499 16 0
-499 21 0
499 -16 -21 0
-499 497 0
-500 28 0
-500 33 0
500 -28 -33 0
-500 497 0
-501 40 0
-501 45 0
501 -40 -45 0
-501 497 0
-502 52 0
-502 57 0
502 -52 -57 0
-502 497 0
-503 64 0
-503 69 0
503 -64 -69 0
-503 497 0
-497 498 499 500 501 502 503 0
-505 4 0
-505 10 0
505 -4 -10 0
-505 504 0
-506 16 0
-506 22 0
506 -16 -22 0
-506 504 0
-507 28 0
-507 34 0
507 -28 -34 0
-507 504 0
-508 40 0
-508 46 0
508 -40 -46 0
-508 504 0
-509 52 0
-509 58 0
509 -52 -58 0
-509 504 0
-510 64 0
-510 70 0
510 -64 -70 0
-510 504 0
-504 505 506 507 508 509 510 0
-512 4 0
-512 11 0
512 -4 -11 0
-512 511 0
-513 16 0
-513 23 0
513 -16 -23 0
-513 511 0
-514 28 0
-514 35 0
514 -28 -35 0
-514 511 0
-515 40 0
-515 47 0
515 -40 -47 0
-515 511 0
-516 52 0
-516 59 0
516 -52 -59 0
-516 511 0
-517 64 0
-517 71 0
517 -64 -71 0
-517 511 0
-511 512 513 514 515 516 517 0
-519 4 0
-519 12 0
519 -4 -12 0
-519 518 0
-520 16 0
-520 24 0
520 -16 -24 0
-520 518 0
-521 28 0
-521 36 0
521 -28 -36 0
-521 518 0
-522 40 0
-522 48 0
522 -40 -48 0
-522 518 0
-523 52 0
-523 60 0
523 -52 -60 0
-523 518 0
-524 64 0
-524 72 0
524 -64 -72 0
-524 518 0
-518 519 520 521 522 523 524 0
-526 5 0
-526 9 0
526 -5 -9 0
-526 525 0
-527 17 0
-527 21 0
527 -17 -21 0
-527 525 0
-528 29 0
-528 33 0
528 -29 -33 0
-528 525 0
-529 41 0
-529 45 0
529 -41 -45 0
-529 525 0
-530 53 0
-530 57 0
530 -53 -57 0
-530 525 0
-531 65 0
-531 69 0
531 -65 -69 0
-531 525 0
-525 526 527 528 529 530 531 0
-533 5 0
-533 10 0
533 -5 -10 0
-533 532 0
-534 17 0
-534 22 0
534 -17 -22 0
-534 532 0
-535 29 0
-535 34 0
535 -29 -34 0
-535 532 0
-536 41 0
-536 46 0
536 -41 -46 0
-536 532 0
-537 53 0
-537 58 0
537 -53 -58 0
-537 532 0
-538 65 0
-538 70 0
538 -65 -70 0
-538 532 0
-532 533 534 535 536 537 538 0
-540 5 0
-540 11 0
540 -5 -11 0
-540 539 0
-541 17 0
-541 23 0
541 -17 -23 0
-541 539 0
-542 29 0
-542 35 0
542 -29 -35 0
-542 539 0
-543 41 0
-543 47 0
543 -41 -47 0
-543 539 0
-544 53 0
-544 59 0
544 -53 -59 0
-544 539 0
-545 65 0
-545 71 0
545 -65 -71 0
-545 539 0
-539 540 541 542 543 544 545 0
-547 5 0
-547 12 0
547 -5 -12 0
-547 546 0
-548 17 0
-548 24 0
548 -17 -24 0
-548 546 0
-549 29 0
-549 36 0
549 -29 -36 0
-549 546 0
-550 41 0
-550 48 0
550 -41 -48 0
-550 546 0
-551 53 0
-551 60 0
551 -53 -60 0
-551 546 0
-552 65 0
-552 72 0
552 -65 -72 0
-552 546 0
-546 547 548 549 550 551 552 0
-554 6 0
-554 9 0
554 -6 -9 0
-554 553 0
-555 18 0
-555 21 0
555 -18 -21 0
-555 553 0
-556 30 0
-556 33 0
556 -30 -33 0
-556 553 0
-557 42 0
-557 45 0
557 -42 -45 0
-557 553 0
-558 54 0
-558 57 0
558 -54 -57 0
-558 553 0
-559 66 0
-559 69 0
559 -66 -69 0
-559 553 0
-553 554 555 556 557 558 559 0
-561 6 0
-561 10 0
561 -6 -10 0
-561 560 0
-562 18 0
-562 22 0
562 -18 -22 0
-562 560 0
-563 30 0
-563 34 0
563 -30 -34 0
-563 560 0
-564 42 0
-564 46 0
564 -42 -46 0
-564 560 0
-565 54 0
-565 58 0
565 -54 -58 0
-565 560 0
-566 66 0
-566 70 0
566 -66 -70 0
-566 560 0
-560 561 562 563 564 565 566 0
-568 6 0
-568 11 0
568 -6 -11 0
-568 567 0
-569 18 0
-569 23 0
569 -18 -23 0
-569 567 0
-570 30 0
-570 35 0
570 -30 -35 0
-570 567 0
-571 42 0
-571 47 0
571 -42 -47 0
-571 567 0
-572 54 0
-572 59 0
572 -54 -59 0
-572 567 0
-573 66 0
-573 71 0
573 -66 -71 0
-573 567 0
-567 568 569 570 571 572 573 0
-575 6 0
-575 12 0
575 -6 -12 0
-575 574 0
-576 18 0
-576 24 0
576 -18 -24 0
-576 574 0
-577 30 0
-577 36 0
577 -30 -36 0
-577 574 0
-578 42 0
-578 48 0
578 -42 -48 0
-578 574 0
-579 54 0
-579 60 0
579 -54 -60 0
-579 574 0
-580 66 0
-580 72 0
580 -66 -72 0
-580 574 0
-574 575 576 577 578 579 580 0
-582 7 0
-582 9 0
582 -7 -9 0
-582 581 0
-583 19 0
-583 21 0
583 -19 -21 0
-583 581 0
-584 31 0
-584 33 0
584 -31 -33 0
-584 581 0
-585 43 0
-585 45 0
585 -43 -45 0
-585 581 0
-586 55 0
-586 57 0
586 -55 -57 0
-586 581 0
-587 67 0
-587 69 0
587 -67 -69 0
-587 581 0
-581 582 583 584 585 586 587 0
-589 7 0
-589 10 0
589 -7 -10 0
-589 588 0
-590 19 0
-590 22 0
590 -19 -22 0
-590 588 0
-591 31 0
-591 34 0
591 -31 -34 0
-591 588 0
-592 43 0
-592 46 0
592 -43 -46 0
-592 588 0
-593 55 0
-593 58 0
593 -55 -58 0
-593 588 0
-594 67 0
-594 70 0
594 -67 -70 0
-594 588 0
-588 589 590 591 592 593 594 0
-596 7 0
-596 11 0
596 -7 -11 0
-596 595 0
-597 19 0
-597 23 0
597 -19 -23 0
-597 595 0
-598 31 0
-598 35 0
598 -31 -35 0
-598 595 0
-599 43 0
-599 47 0
599 -43 -47 0
-599 595 0
-600 55 0
-600 59 0
600 -55 -59 0
-600 595 0
-601 67 0
-601 71 0
601 -67 -71 0
-601 595 0
-595 596 597 598 599 600 601 0
-603 7 0
-603 12 0
603 -7 -12 0
-603 602 0
-604 19 0
-604 24 0
604 -19 -24 0
-604 602 0
-605 31 0
-605 36 0
605 -31 -36 0
-605 602 0
-606 43 0
-606 48 0
606 -43 -48 0
-606 602 0
-607 55 0
-607 60 0
607 -55 -60 0
-607 602 0
-608 67 0
-608 72 0
608 -67 -72 0
-608 602 0
-602 603 604 605 606 607 608 0
-610 8 0
-610 9 0
610 -8 -9 0
-610 609 0
-611 20 0
-611 21 0
611 -20 -21 0
-611 609 0
-612 32 0
-612 33 0
612 -32 -33 0
-612 609 0
-613 44 0
-613 45 0
613 -44 -45 0
-613 609 0
-614 56 0
-614 57 0
614 -56 -57 0
-614 609 0
-615 68 0
-615 69 0
615 -68 -69 0
-615 609 0
-609 610 611 612 613 614 615 0
-617 8 0
-617 10 0
617 -8 -10 0
-617 616 0
-618 20 0
-618 22 0
618 -20 -22 0
-618 616 0
-619 32 0
-619 34 0
619 -32 -34 0
-619 616 0
-620 44 0
-620 46 0
620 -44 -46 0
-620 616 0
-621 56 0
-621 58 0
621 -56 -58 0
-621 616 0
-622 68 0
-622 70 0
622 -68 -70 0
-622 616 0
-616 617 618 619 620 621 622 0
-624 8 0
-624 11 0
624 -8 -11 0
-624 623 0
-625 20 0
-625 23 0
625 -20 -23 0
-625 623 0
-626 32 0
-626 35 0
626 -32 -35 0
-626 623 0
-627 44 0
-627 47 0
627 -44 -47 0
-627 623 0
-628 56 0
-628 59 0
628 -56 -59 0
-628 623 0
-629 68 0
-629 71 0
629 -68 -71 0
-629 623 0
-623 624 625 626 627 628 629 0
-631 8 0
-631 12 0
631 -8 -12 0
-631 630 0
-632 20 0
-632 24 0
632 -20 -24 0
-632 630 0
-633 32 0
-633 36 0
633 -32 -36 0
-633 630 0
-634 44 0
-634 48 0
634 -44 -48 0
-634 630 0
-635 56 0
-635 60 0
635 -56 -60 0
-635 630 0
-636 68 0
-636 72 0
636 -68 -72 0
-636 630 0
-630 631 632 633 634 635 636 0
253 269 285 301 413 525 0
253 269 286 301 420 532 0
253 269 287 301 427 539 0
253 269 288 301 434 546 0
253 270 285 308 413 553 0
253 270 286 308 420 560 0
253 270 287 308 427 567 0
253 270 288 308 434 574 0
253 271 285 315 413 581 0
253 271 286 315 420 588 0
253 271 287 315 427 595 0
253 271 288 315 434 602 0
253 272 285 322 413 609 0
253 272 286 322 420 616 0
253 272 287 322 427 623 0
253 272 288 322 434 630 0
254 269 285 329 441 525 0
254 269 286 329 448 532 0
254 269 287 329 455 539 0
254 269 288 329 462 546 0
254 270 285 336 441 553 0
254 270 286 336 448 560 0
254 270 287 336 455 567 0
254 270 288 336 462 574 0
254 271 285 343 441 581 0
254 271 286 343 448 588 0
254 271 287 343 455 595 0
254 271 288 343 462 602 0
254 272 285 350 441 609 0
254 272 286 350 448 616 0
254 272 287 350 455 623 0
254 272 288 350 462 630 0
255 269 285 357 469 525 0
255 269 286 357 476 532 0
255 269 287 357 483 539 0
255 269 288 357 490 546 0
255 270 285 364 469 553 0
255 270 286 364 476 560 0
255 270 287 364 483 567 0
255 270 288 364 490 574 0
255 271 285 371 469 581 0
255 271 286 371 476 588 0
255 271 287 371 483 595 0
255 271 288 371 490 602 0
255 272 285 378 469 609 0
255 272 286 378 476 616 0
255 272 287 378 483 623 0
255 272 288 378 490 630 0
256 269 285 385 497 525 0
256 269 286 385 504 532 0
256 269 287 385 511 539 0
256 269 288 385 518 546 0
256 270 285 392 497 553 0
256 270 286 392 504 560 0
256 270 287 392 511 567 0
256 270 288 392 518 574 0
256 271 285 399 497 581 0
256 271 286 399 504 588 0
256 271 287 399 511 595 0
256 271 288 399 518 602 0
256 272 285 406 497 609 0
256 272 286 406 504 616 0
256 272 287 406 511 623 0
256 272 288 406 518 630 0
257 273 289 301 413 525 0
257 273 290 301 420 532 0
257 273 291 301 427 539 0
257 273 292 301 434 546 0
257 274 289 308 413 553 0
257 274 290 308 420 560 0
257 274 291 308 427 567 0
257 274 292 308 434 574 0
257 275 289 315 413 581 0
257 275 290 315 420 588 0
257 275 291 315 427 595 0
257 275 292 315 434 602 0
257 276 289 322 413 609 0
257 276 290 322 420 616 0
257 276 291 322 427 623 0
257 276 292 322 434 630 0
258 273 289 329 441 525 0
258 273 290 329 448 532 0
258 273 291 329 455 539 0
258 273 292 329 462 546 0
258 274 289 336 441 553 0
258 274 290 336 448 560 0
258 274 291 336 455 567 0
258 274 292 336 462 574 0
258 275 289 343 441 581 0
258 275 290 343 448 588 0
258 275 291 343 455 595 0
258 275 292 343 462 602 0
258 276 289 350 441 609 0
258 276 290 350 448 616 0
258 276 291 350 455 623 0
258 276 292 350 462 630 0
259 273 289 357 469 525 0
259 273 290 357 476 532 0
259 273 291 357 483 539 0
259 273 292 357 490 546 0
259 274 289 364 469 553 0
259 274 290 364 476 560 0
259 274 291 364 483 567 0
259 274 292 364 490 574 0
259 275 289 371 469 581 0
259 275 290 371 476 588 0
259 275 291 371 483 595 0
259 275 292 371 490 602 0
259 276 289 378 469 609 0
259 276 290 378 476 616 0
259 276 291 378 483 623 0
259 276 292 378 490 630 0
260 273 289 385 497 525 0
260 273 290 385 504 532 0
260 273 291 385 511 539 0
260 273 292 385 518 546 0
260 274 289 392 497 553 0
260 274 290 392 504 560 0
260 274 291 392 511 567 0
260 274 292 392 518 574 0
260 275 289 399 497 581 0
260 275 290 399 504 588 0
260 275 291 399 511 595 0
260 275 292 399 518 602 0
260 276 289 406 497 609 0
260 276 290 406 504 616 0
260 276 291 406 511 623 0
260 276 292 406 518 630 0
261 277 293 301 413 525 0
261 277 294 301 420 532 0
261 277 295 301 427 539 0
261 277 296 301 434 546 0
261 278 293 308 413 553 0
261 278 294 308 420 560 0
261 278 295 308 427 567 0
261 278 296 308 434 574 0
261 279 293 315 413 581 0
261 279 294 315 420 588 0
261 279 295 315 427 595 0
261 279 296 315 434 602 0
261 280 293 322 413 609 0
261 280 294 322 420 616 0
261 280 295 322 427 623 0
261 280 296 322 434 630 0
262 277 293 329 441 525 0
262 277 294 329 448 532 0
262 277 295 329 455 539 0
262 277 296 329 462 546 0
262 278 293 336 441 553 0
262 278 294 336 448 560 0
262 278 295 336 455 567 0
262 278 296 336 462 574 0
262 279 293 343 441 581 0
262 279 294 343 448 588 0
262 279 295 343 455 595 0
262 279 296 343 462 602 0
262 280 293 350 441 609 0
262 280 294 350 448 616 0
262 280 295 350 455 623 0
262 280 296 350 462 630 0
263 277 293 357 469 525 0
263 277 294 357 476 532 0
263 277 295 357 483 539 0
263 277 296 357 490 546 0
263 278 293 364 469 553 0
263 278 294 364 476 560 0
263 278 295 364 483 567 0
263 278 296 364 490 574 0
263 279 293 371 469 581 0
263 279 294 371 476 588 0
263 279 295 371 483 595 0
263 279 296 371 490 602 0
263 280 293 378 469 609 0
263 280 294 378 476 616 0
263 280 295 378 483 623 0
263 280 296 378 490 630 0
264 277 293 385 497 525 0
264 277 294 385 504 532 0
264 277 295 385 511 539 0
264 277 296 385 518 546 0
264 278 293 392 497 553 0
264 278 294 392 504 560 0
264 278 295 392 511 567 0
264 278 296 392 518 574 0
264 279 293 399 497 581 0
264 279 294 399 504 588 0
264 279 295 399 511 595 0
264 279 296 399 518 602 0
264 280 293 406 497 609 0
264 280 294 406 504 616 0
264 280 295 406 511 623 0
264 280 296 406 518 630 0
265 281 297 301 413 525 0
265 281 298 301 420 532 0
265 281 299 301 427 539 0
265 281 300 301 434 546 0
265 282 297 308 413 553 0
265 282 298 308 420 560 0
265 282 299 308 427 567 0
265 282 300 308 434 574 0
265 283 297 315 413 581 0
265 283 298 315 420 588 0
265 283 299 315 427 595 0
265 283 300 315 434 602 0
265 284 297 322 413 609 0
265 284 298 322 420 616 0
265 284 299 322 427 623 0
265 284 300 322 434 630 0
266 281 297 329 441 525 0
266 281 298 329 448 532 0
266 281 299 329 455 539 0
266 281 300 329 462 546 0
266 282 297 336 441 553 0
266 282 298 336 448 560 0
266 282 299 336 455 567 0
266 282 300 336 462 574 0
266 283 297 343 441 581 0
266 283 298 343 448 588 0
266 283 299 343 455 595 0
266 283 300 343 462 602 0
266 284 297 350 441 609 0
266 284 298 350 448 616 0
266 284 299 350 455 623 0
266 284 300 350 462 630 0
267 281 297 357 469 525 0
267 281 298 357 476 532 0
267 281 299 357 483 539 0
267 281 300 357 490 546 0
267 282 297 364 469 553 0
267 282 298 364 476 560 0
267 282 299 364 483 567 0
267 282 300 364 490 574 0
267 283 297 371 469 581 0
267 283 298 371 476 588 0
267 283 299 371 483 595 0
267 283 300 371 490 602 0
267 284 297 378 469 609 0
267 284 298 378 476 616 0
267 284 299 378 483 623 0
267 284 300 378 490 630 0
268 281 297 385 497 525 0
268 281 298 385 504 532 0
268 281 299 385 511 539 0
268 281 300 385 518 546 0
268 282 297 392 497 553 0
268 282 298 392 504 560 0
268 282 299 392 511 567 0
268 282 300 392 518 574 0
268 283 297 399 497 581 0
268 283 298 399 504 588 0
268 283 299 399 511 595 0
268 283 300 399 518 602 0
268 284 297 406 497 609 0
268 284 298 406 504 616 0
268 284 299 406 511 623 0
268 284 300 406 518 630 0
-2 -13 0
-3 -13 0
-3 -14 0
-4 -13 0
-4 -14 0
-4 -15 0
-26 -37 0
-27 -37 0
-27 -38 0
-28 -37 0
-28 -38 0
-28 -39 0
-2 1 13 0
-14 1 13 0
-26 1 13 25 37 0
-38 1 13 25 37 0
-50 1 13 25 37 49 0
-62 1 13 25 37 49 61 0
-4 3 15 0
-16 3 15 0
-28 3 15 27 39 0
-40 3 15 27 39 0
-52 3 15 27 39 51 0
-64 3 15 27 39 51 63 0
-6 0
-18 5 0
-30 5 17 0
-42 5 17 29 0
-54 5 17 29 41 0
-66 5 17 29 41 53 0
-8 0
-20 7 0
-32 7 19 0
-44 7 19 31 0
-56 7 19 31 43 0
-68 7 19 31 43 55 0
-10 0
-22 9 0
-34 9 21 0
-46 9 21 33 0
-58 9 21 33 45 0
-70 9 21 33 45 57 0
-12 0
-24 11 0
-36 11 23 0
-48 11 23 35 0
-60 11 23 35 47 0
-72 11 23 35 47 59 0
